benchmarks_CP/INST_36x36/25/inst36x36_25_93.dzn
S=6;
start=[|
-1,	-1,	-1,	-1,	22,	-1,	-1,	-1,	-1,	-1,	-1,	-1,	-1,	-1,	-1,	-1,	-1,	-1,	-1,	-1,	15,	-1,	-1,	35,	-1,	-1,	-1,	-1,	8,	-1,	-1,	23,	-1,	-1,	-1,	-1|
-1,	-1,	-1,	7,	-1,	-1,	5,	-1,	12,	-1,	-1,	8,	-1,	-1,	-1,	-1,	2,	3,	-1,	-1,	-1,	36,	-1,	-1,	-1,	19,	30,	-1,	-1,	-1,	16,	-1,	17,	-1,	-1,	25|
-1,	-1,	-1,	-1,	-1,	9,	3,	-1,	-1,	-1,	-1,	-1,	-1,	7,	-1,	-1,	-1,	-1,	-1,	-1,	16,	-1,	-1,	12,	-1,	-1,	18,	-1,	-1,	5,	-1,	-1,	-1,	-1,	-1,	-1|
-1,	-1,	-1,	-1,	-1,	-1,	-1,	-1,	-1,	-1,	-1,	-1,	-1,	12,	-1,	-1,	8,	-1,	-1,	-1,	-1,	-1,	11,	-1,	-1,	-1,	-1,	-1,	-1,	-1,	-1,	-1,	-1,	-1,	-1,	28|
-1,	23,	-1,	21,	-1,	-1,	-1,	-1,	-1,	-1,	-1,	-1,	-1,	11,	-1,	31,	-1,	29,	-1,	-1,	24,	-1,	-1,	17,	-1,	-1,	-1,	-1,	-1,	25,	-1,	-1,	-1,	-1,	-1,	-1|
-1,	-1,	-1,	-1,	-1,	-1,	-1,	36,	31,	-1,	-1,	-1,	23,	-1,	-1,	-1,	-1,	-1,	-1,	-1,	-1,	-1,	4,	-1,	-1,	-1,	-1,	-1,	11,	-1,	5,	-1,	15,	9,	13,	-1|
-1,	-1,	-1,	-1,	-1,	-1,	-1,	22,	-1,	3,	12,	-1,	-1,	-1,	-1,	-1,	-1,	-1,	-1,	-1,	-1,	-1,	-1,	-1,	-1,	27,	-1,	-1,	-1,	33,	-1,	35,	-1,	-1,	-1,	32|
-1,	-1,	-1,	33,	-1,	-1,	9,	25,	-1,	-1,	-1,	-1,	-1,	2,	-1,	36,	34,	20,	-1,	15,	-1,	-1,	-1,	21,	-1,	-1,	-1,	-1,	-1,	-1,	13,	10,	-1,	-1,	-1,	-1|
-1,	-1,	-1,	-1,	-1,	18,	8,	-1,	-1,	-1,	5,	-1,	-1,	27,	17,	-1,	-1,	-1,	24,	-1,	31,	-1,	-1,	-1,	-1,	21,	-1,	-1,	4,	-1,	7,	-1,	-1,	6,	-1,	-1|
-1,	-1,	-1,	-1,	-1,	-1,	-1,	30,	19,	-1,	-1,	-1,	-1,	-1,	-1,	-1,	-1,	4,	3,	-1,	-1,	-1,	22,	-1,	-1,	-1,	-1,	-1,	32,	35,	-1,	-1,	-1,	34,	-1,	-1|
-1,	-1,	-1,	-1,	-1,	16,	27,	-1,	-1,	-1,	-1,	-1,	14,	-1,	23,	-1,	-1,	-1,	-1,	-1,	-1,	-1,	-1,	-1,	8,	-1,	-1,	-1,	-1,	-1,	-1,	21,	-1,	28,	15,	-1|
-1,	-1,	-1,	-1,	-1,	22,	17,	-1,	21,	-1,	-1,	26,	-1,	-1,	-1,	-1,	-1,	-1,	-1,	18,	19,	-1,	-1,	5,	-1,	-1,	-1,	-1,	-1,	34,	3,	24,	-1,	-1,	-1,	27|
-1,	-1,	-1,	-1,	-1,	-1,	15,	-1,	-1,	-1,	8,	-1,	31,	-1,	-1,	-1,	-1,	-1,	-1,	-1,	-1,	11,	6,	2,	-1,	1,	17,	35,	-1,	-1,	-1,	19,	-1,	-1,	-1,	-1|
11,	-1,	24,	2,	-1,	-1,	-1,	-1,	-1,	26,	-1,	-1,	-1,	-1,	13,	-1,	-1,	21,	-1,	25,	-1,	-1,	-1,	-1,	-1,	-1,	-1,	-1,	33,	-1,	-1,	-1,	-1,	-1,	-1,	-1|
-1,	5,	-1,	-1,	-1,	3,	22,	-1,	17,	-1,	-1,	-1,	-1,	19,	-1,	-1,	27,	-1,	-1,	-1,	-1,	-1,	-1,	18,	12,	-1,	-1,	11,	-1,	-1,	26,	-1,	-1,	-1,	-1,	-1|
-1,	-1,	-1,	-1,	-1,	-1,	-1,	2,	32,	-1,	-1,	10,	-1,	-1,	-1,	-1,	-1,	28,	8,	-1,	-1,	-1,	-1,	-1,	-1,	-1,	23,	34,	-1,	19,	-1,	33,	-1,	-1,	-1,	11|
-1,	-1,	-1,	14,	-1,	15,	-1,	-1,	-1,	34,	-1,	-1,	25,	-1,	-1,	-1,	-1,	-1,	-1,	-1,	-1,	24,	-1,	-1,	-1,	-1,	-1,	-1,	-1,	26,	22,	-1,	-1,	-1,	-1,	31|
-1,	-1,	-1,	-1,	-1,	-1,	-1,	-1,	-1,	-1,	-1,	35,	-1,	-1,	-1,	-1,	-1,	-1,	19,	-1,	12,	26,	-1,	-1,	-1,	-1,	-1,	-1,	-1,	36,	-1,	-1,	10,	-1,	-1,	-1|
-1,	-1,	-1,	-1,	-1,	-1,	26,	-1,	36,	-1,	-1,	-1,	-1,	-1,	-1,	-1,	23,	-1,	-1,	-1,	35,	-1,	3,	-1,	-1,	-1,	-1,	-1,	-1,	-1,	21,	5,	-1,	31,	-1,	17|
-1,	-1,	-1,	-1,	-1,	-1,	-1,	-1,	-1,	-1,	-1,	-1,	4,	5,	-1,	-1,	-1,	-1,	-1,	-1,	-1,	-1,	9,	-1,	-1,	17,	-1,	-1,	-1,	6,	-1,	-1,	-1,	-1,	-1,	-1|
-1,	-1,	10,	-1,	-1,	-1,	-1,	-1,	-1,	-1,	-1,	-1,	32,	34,	-1,	3,	-1,	-1,	-1,	-1,	5,	-1,	-1,	36,	21,	30,	24,	-1,	-1,	-1,	-1,	-1,	14,	-1,	-1,	-1|
-1,	-1,	34,	3,	-1,	-1,	-1,	-1,	-1,	19,	-1,	-1,	-1,	21,	35,	25,	-1,	7,	30,	27,	26,	-1,	10,	-1,	-1,	13,	-1,	14,	-1,	-1,	15,	32,	28,	-1,	24,	-1|
-1,	-1,	-1,	32,	-1,	14,	-1,	-1,	15,	-1,	-1,	5,	-1,	10,	-1,	-1,	11,	-1,	29,	28,	-1,	-1,	-1,	-1,	-1,	-1,	-1,	-1,	-1,	-1,	30,	-1,	-1,	-1,	12,	-1|
-1,	-1,	-1,	13,	-1,	-1,	-1,	-1,	-1,	-1,	-1,	3,	-1,	-1,	-1,	-1,	-1,	-1,	-1,	-1,	23,	-1,	-1,	-1,	-1,	-1,	5,	10,	-1,	-1,	-1,	-1,	-1,	-1,	25,	-1|
23,	29,	-1,	-1,	-1,	34,	31,	8,	-1,	21,	-1,	-1,	-1,	-1,	-1,	-1,	-1,	-1,	-1,	-1,	36,	27,	-1,	-1,	17,	33,	-1,	-1,	-1,	-1,	32,	15,	-1,	-1,	7,	-1|
-1,	-1,	-1,	-1,	2,	-1,	-1,	-1,	-1,	-1,	-1,	-1,	9,	-1,	15,	19,	-1,	-1,	-1,	-1,	-1,	-1,	-1,	-1,	-1,	-1,	-1,	23,	34,	28,	-1,	-1,	13,	-1,	-1,	-1|
16,	-1,	-1,	-1,	-1,	-1,	-1,	-1,	29,	-1,	28,	-1,	-1,	-1,	36,	-1,	-1,	25,	-1,	-1,	-1,	-1,	-1,	-1,	19,	-1,	-1,	-1,	31,	-1,	-1,	-1,	-1,	2,	-1,	24|
-1,	-1,	-1,	-1,	-1,	-1,	-1,	18,	-1,	24,	-1,	7,	-1,	-1,	-1,	10,	33,	13,	12,	11,	-1,	1,	-1,	-1,	5,	26,	-1,	-1,	22,	-1,	-1,	-1,	-1,	-1,	-1,	-1|
10,	-1,	-1,	-1,	-1,	-1,	-1,	-1,	-1,	-1,	-1,	-1,	-1,	-1,	-1,	-1,	7,	-1,	-1,	29,	-1,	-1,	-1,	25,	-1,	36,	-1,	-1,	-1,	-1,	-1,	18,	19,	-1,	-1,	-1|
-1,	-1,	-1,	-1,	8,	-1,	-1,	-1,	-1,	14,	-1,	-1,	-1,	-1,	-1,	-1,	-1,	-1,	33,	35,	3,	-1,	-1,	19,	-1,	-1,	-1,	-1,	-1,	-1,	20,	1,	-1,	-1,	-1,	-1|
-1,	34,	-1,	4,	-1,	-1,	-1,	-1,	-1,	10,	6,	-1,	8,	-1,	-1,	28,	-1,	-1,	14,	-1,	-1,	-1,	-1,	-1,	-1,	-1,	-1,	-1,	-1,	-1,	-1,	16,	-1,	-1,	-1,	13|
-1,	-1,	-1,	-1,	-1,	26,	-1,	-1,	-1,	-1,	-1,	-1,	-1,	-1,	14,	-1,	-1,	-1,	-1,	-1,	-1,	-1,	33,	-1,	-1,	-1,	-1,	2,	13,	20,	11,	29,	-1,	-1,	-1,	30|
-1,	-1,	-1,	-1,	6,	-1,	-1,	-1,	-1,	31,	-1,	-1,	-1,	36,	33,	-1,	-1,	-1,	-1,	-1,	-1,	-1,	-1,	-1,	18,	-1,	14,	8,	21,	-1,	-1,	20,	26,	17,	-1,	1|
-1,	-1,	-1,	8,	14,	-1,	32,	-1,	-1,	35,	-1,	-1,	10,	-1,	3,	-1,	-1,	-1,	2,	-1,	-1,	-1,	-1,	-1,	-1,	5,	-1,	16,	30,	-1,	-1,	-1,	-1,	-1,	33,	-1|
27,	-1,	-1,	-1,	-1,	-1,	-1,	-1,	-1,	-1,	-1,	24,	-1,	-1,	-1,	-1,	-1,	-1,	-1,	1,	-1,	-1,	-1,	30,	-1,	4,	3,	31,	-1,	10,	14,	-1,	18,	-1,	-1,	2|
-1,	-1,	-1,	-1,	-1,	-1,	14,	-1,	16,	-1,	-1,	-1,	-1,	-1,	-1,	-1,	29,	-1,	-1,	-1,	-1,	23,	-1,	-1,	-1,	-1,	-1,	-1,	-1,	22,	-1,	-1,	-1,	-1,	-1,	-1|];
